Route #1: 1 29 30 33 49 61 6 1
Route #2: 1 56 14 45 17 41 32 47 1
Route #3: 1 4 50 57 60 7 36 63 1
Route #4: 1 16 48 10 31 9 5 1
Route #5: 1 24 44 25 18 59 15 42 55 13 12 1
Route #6: 1 38 11 62 43 23 35 40 1
Route #7: 1 20 53 26 34 52 22 1
Route #8: 1 27 3 58 54 39 8 1
Route #9: 1 46 37 21 28 2 1
Route #10: 1 51 19 1
cost 1738.3640676558848
